(set-info :origin "SVCOMP13 benchmarks generated by Arie Gurfinkel")
(set-info :status sat)
(set-logic HORN)
(declare-fun cp-rel-entry () Bool)
(declare-fun cp-rel-bb1.i.i34.i.i () Bool)
(declare-fun cp-rel-bb1.i.i (Real Real Real) Bool)
(assert |cp-rel-entry|)
(assert (forall ((?A Real) (?B Real) (?C Real) (?D Bool) )(let (($x466376 (and |cp-rel-entry| (<= ?C 0.0) (>= ?B 1.0) (<= ?B 1.0) (>= ?A 0.0) (<= ?A 0.0) (= ?D true) (>= ?C 0.0))))
(=> $x466376 (|cp-rel-bb1.i.i| ?A ?B ?C))))
)
(assert (forall ((?A Real) (?B Real) (?C Real) (?D Real) (?E Real) (?F Real) (?G Bool) (?H Bool) (?I Bool) (?J Bool) (?K Bool) (?L Bool) (?M Real) (?N Real) (?O Bool) (?P Bool) (?Q Bool) (?R Bool) (?S Bool) (?T Bool) (?U Real) (?V Real) (?W Bool) (?X Bool) (?Y Bool) (?Z Bool) (?A1 Bool) (?B1 Bool) (?C1 Bool) (?D1 Bool) (?E1 Bool) (?F1 Bool) (?G1 Bool) (?H1 Bool) (?I1 Bool) (?J1 Bool) (?K1 Real) (?L1 Real) (?M1 Real) (?N1 Bool) (?O1 Bool) (?P1 Real) (?Q1 Bool) (?R1 Bool) (?S1 Real) (?T1 Bool) (?U1 Real) (?V1 Real) (?W1 Bool) (?X1 Bool) (?Y1 Real) (?Z1 Bool) (?A2 Bool) (?B2 Bool) )(let (($x376271 (|cp-rel-bb1.i.i| ?D ?E ?F)))
(let (($x888772 (= ?R1 (or ?B2 ?A2))))
(let (($x548787 (or (not ?G) (and ?H ?I (not ?J)))))
(let (($x114708 (or (not ?G) ?I)))
(let (($x120549 (not ?K)))
(let (($x41763 (or $x120549 (and ?G ?L (<= ?M ?N) (>= ?M ?N)) (and ?H ?O ?J (<= ?M ?B) (>= ?M ?B)))))
(let (($x61980 (or $x120549 (and ?L (not ?O)) (and ?O (not ?L)))))
(let (($x815146 (or (not ?P) (and ?K ?Q (not ?R)))))
(let (($x512351 (or (not ?P) ?Q)))
(let (($x510692 (not ?S)))
(let (($x847253 (or $x510692 (and ?P ?T (<= ?U ?V) (>= ?U ?V)) (and ?K ?W ?R (<= ?U ?A) (>= ?U ?A)))))
(let (($x63569 (or $x510692 (and ?T (not ?W)) (and ?W (not ?T)))))
(let (($x229968 (or (not ?X) (and ?S ?Y ?Z))))
(let (($x636692 (or (not ?X) ?Y)))
(let (($x46715 (or (not ?A1) (and ?S ?B1 (not ?Z)))))
(let (($x536831 (or (not ?A1) ?B1)))
(let (($x401637 (or (not ?C1) (and ?X ?D1 ?E1))))
(let (($x530830 (or (not ?C1) ?D1)))
(let (($x639165 (or (not ?F1) (and ?A1 ?G1 ?H1))))
(let (($x713903 (or (not ?F1) ?G1)))
(let (($x449877 (>= ?K1 ?P1)))
(let (($x323914 (<= ?K1 ?P1)))
(let (($x114994 (and ?A1 ?Q1 (not ?H1) $x323914 $x449877 (<= ?L1 0.0) (>= ?L1 0.0))))
(let (($x484709 (>= ?K1 ?M)))
(let (($x239124 (<= ?K1 ?M)))
(let (($x602180 (not ?I1)))
(let (($x837190 (or $x602180 (and ?C1 ?J1 $x239124 $x484709 (<= ?L1 ?M1) (>= ?L1 ?M1)) (and ?X ?N1 (not ?E1) $x239124 $x484709 (<= ?L1 ?C) (>= ?L1 ?C)) (and ?F1 ?O1 $x323914 $x449877 (<= ?L1 ?C) (>= ?L1 ?C)) $x114994)))
(let (($x222961 (or $x602180 (and ?J1 (not ?N1) (not ?O1) (not ?Q1)) (and ?N1 (not ?J1) (not ?O1) (not ?Q1)) (and ?O1 (not ?J1) (not ?N1) (not ?Q1)) (and ?Q1 (not ?J1) (not ?N1) (not ?O1)))))
(let (($x409724 (= ?I1 true)))
(let (($x343056 (= ?R1 true)))
(let (($x608409 (= ?J (= ?S1 0.0))))
(let (($x105664 (= ?U1 (ite ?T1 1.0 0.0))))
(let (($x477166 (= ?R (= ?V1 0.0))))
(let (($x334601 (= ?V (ite ?W1 1.0 0.0))))
(let (($x762650 (= ?E1 (not (<= ?M 1.0)))))
(let (($x626764 (= ?X1 (not (<= ?M 0.0)))))
(let (($x268213 (= ?Y1 (+ (~ 1.0) ?M))))
(let (($x235037 (= ?P1 (ite ?X1 ?Y1 ?M))))
(let (($x619049 (= ?H1 (= ?P1 0.0))))
(let (($x3733 (= ?Z1 (= ?U 0.0))))
(let (($x289414 (= ?A2 (= ?U 0.0))))
(let (($x414835 (= ?B2 (= ?L1 0.0))))
(let (($x378175 (and (|cp-rel-bb1.i.i| ?A ?B ?C) $x414835 $x289414 (= ?M1 (ite ?Z1 1.0 ?C)) $x3733 $x619049 $x235037 $x268213 $x626764 $x762650 (= ?Z (= ?C 0.0)) $x334601 (= ?W1 (= ?A 0.0)) $x477166 (= ?N (+ ?U1 ?B)) $x105664 (= ?T1 (not (<= 2.0 ?B))) $x608409 (>= ?F ?L1) (<= ?F ?L1) (>= ?E ?K1) (<= ?E ?K1) (>= ?D ?U) (<= ?D ?U) $x343056 $x409724 $x222961 $x837190 $x713903 $x639165 $x530830 $x401637 $x536831 $x46715 $x636692 $x229968 $x63569 $x847253 $x512351 $x815146 $x61980 $x41763 $x114708 $x548787 $x888772)))
(=> $x378175 $x376271)))))))))))))))))))))))))))))))))))))))))))))
)
(assert (forall ((?A Real) (?B Real) (?C Real) (?D Bool) (?E Bool) (?F Bool) (?G Bool) (?H Bool) (?I Bool) (?J Real) (?K Real) (?L Bool) (?M Bool) (?N Bool) (?O Bool) (?P Bool) (?Q Bool) (?R Real) (?S Real) (?T Bool) (?U Bool) (?V Bool) (?W Bool) (?X Bool) (?Y Bool) (?Z Bool) (?A1 Bool) (?B1 Bool) (?C1 Bool) (?D1 Bool) (?E1 Bool) (?F1 Bool) (?G1 Bool) (?H1 Real) (?I1 Real) (?J1 Real) (?K1 Bool) (?L1 Bool) (?M1 Real) (?N1 Bool) (?O1 Bool) (?P1 Real) (?Q1 Bool) (?R1 Real) (?S1 Real) (?T1 Bool) (?U1 Bool) (?V1 Real) (?W1 Bool) (?X1 Bool) (?Y1 Bool) )(let (($x888772 (= ?O1 (or ?Y1 ?X1))))
(let (($x548787 (or (not ?D) (and ?E ?F (not ?G)))))
(let (($x114708 (or (not ?D) ?F)))
(let (($x120549 (not ?H)))
(let (($x435054 (or $x120549 (and ?D ?I (<= ?J ?K) (>= ?J ?K)) (and ?E ?L ?G (<= ?J ?B) (>= ?J ?B)))))
(let (($x61980 (or $x120549 (and ?I (not ?L)) (and ?L (not ?I)))))
(let (($x815146 (or (not ?M) (and ?H ?N (not ?O)))))
(let (($x512351 (or (not ?M) ?N)))
(let (($x510692 (not ?P)))
(let (($x357166 (or $x510692 (and ?M ?Q (<= ?R ?S) (>= ?R ?S)) (and ?H ?T ?O (<= ?R ?A) (>= ?R ?A)))))
(let (($x63569 (or $x510692 (and ?Q (not ?T)) (and ?T (not ?Q)))))
(let (($x229968 (or (not ?U) (and ?P ?V ?W))))
(let (($x636692 (or (not ?U) ?V)))
(let (($x46715 (or (not ?X) (and ?P ?Y (not ?W)))))
(let (($x536831 (or (not ?X) ?Y)))
(let (($x401637 (or (not ?Z) (and ?U ?A1 ?B1))))
(let (($x530830 (or (not ?Z) ?A1)))
(let (($x639165 (or (not ?C1) (and ?X ?D1 ?E1))))
(let (($x713903 (or (not ?C1) ?D1)))
(let (($x449877 (>= ?H1 ?M1)))
(let (($x323914 (<= ?H1 ?M1)))
(let (($x114994 (and ?X ?N1 (not ?E1) $x323914 $x449877 (<= ?I1 0.0) (>= ?I1 0.0))))
(let (($x484709 (>= ?H1 ?J)))
(let (($x239124 (<= ?H1 ?J)))
(let (($x602180 (not ?F1)))
(let (($x834015 (or $x602180 (and ?Z ?G1 $x239124 $x484709 (<= ?I1 ?J1) (>= ?I1 ?J1)) (and ?U ?K1 (not ?B1) $x239124 $x484709 (<= ?I1 ?C) (>= ?I1 ?C)) (and ?C1 ?L1 $x323914 $x449877 (<= ?I1 ?C) (>= ?I1 ?C)) $x114994)))
(let (($x222961 (or $x602180 (and ?G1 (not ?K1) (not ?L1) (not ?N1)) (and ?K1 (not ?G1) (not ?L1) (not ?N1)) (and ?L1 (not ?G1) (not ?K1) (not ?N1)) (and ?N1 (not ?G1) (not ?K1) (not ?L1)))))
(let (($x409724 (= ?F1 true)))
(let (($x608409 (= ?G (= ?P1 0.0))))
(let (($x105664 (= ?R1 (ite ?Q1 1.0 0.0))))
(let (($x477166 (= ?O (= ?S1 0.0))))
(let (($x334601 (= ?S (ite ?T1 1.0 0.0))))
(let (($x762650 (= ?B1 (not (<= ?J 1.0)))))
(let (($x626764 (= ?U1 (not (<= ?J 0.0)))))
(let (($x268213 (= ?V1 (+ (~ 1.0) ?J))))
(let (($x235037 (= ?M1 (ite ?U1 ?V1 ?J))))
(let (($x619049 (= ?E1 (= ?M1 0.0))))
(let (($x3733 (= ?W1 (= ?R 0.0))))
(let (($x289414 (= ?X1 (= ?R 0.0))))
(let (($x414835 (= ?Y1 (= ?I1 0.0))))
(let (($x376271 (|cp-rel-bb1.i.i| ?A ?B ?C)))
(let (($x356860 (and $x376271 $x414835 $x289414 (= ?J1 (ite ?W1 1.0 ?C)) $x3733 $x619049 $x235037 $x268213 $x626764 $x762650 (= ?W (= ?C 0.0)) $x334601 (= ?T1 (= ?A 0.0)) $x477166 (= ?K (+ ?R1 ?B)) $x105664 (= ?Q1 (not (<= 2.0 ?B))) $x608409 (not (= ?O1 true)) $x409724 $x222961 $x834015 $x713903 $x639165 $x530830 $x401637 $x536831 $x46715 $x636692 $x229968 $x63569 $x357166 $x512351 $x815146 $x61980 $x435054 $x114708 $x548787 $x888772)))
(=> $x356860 |cp-rel-bb1.i.i34.i.i|))))))))))))))))))))))))))))))))))))))))))))
)
(assert (not cp-rel-bb1.i.i34.i.i))
(check-sat)
